$molecule
0 1
H        0.0    0.0000000000    0.0000000000
F        -0.9245837    0.0000000000    0.0000000000 
Au 2.2 0.0 0.0 
Au 4.9 0.0 0.0 
Au 7.6000000000000005 0.0 0.0 
Au 10.3 0.0 0.0 
Au 13.0 0.0 0.0 
Au 15.7 0.0 0.0 
Au 18.400000000000002 0.0 0.0 
Au 21.1 0.0 0.0 
Au 23.8 0.0 0.0 
Au 26.5 0.0 0.0 
Au 29.2 0.0 0.0 
Au 31.900000000000002 0.0 0.0 
Au 34.60000000000001 0.0 0.0 
Au 37.300000000000004 0.0 0.0 
Au 40.00000000000001 0.0 0.0 
Au 42.7 0.0 0.0 
Au 45.400000000000006 0.0 0.0 
Au 48.10000000000001 0.0 0.0 
Au 50.800000000000004 0.0 0.0 
Au 53.50000000000001 0.0 0.0 
Au 56.2 0.0 0.0 
Au 58.900000000000006 0.0 0.0 
Au 61.60000000000001 0.0 0.0 
Au 64.3 0.0 0.0 
Au 67.00000000000001 0.0 0.0 
Au 69.7 0.0 0.0 
Au 72.4 0.0 0.0 
Au 75.10000000000001 0.0 0.0
$end


$rem
sym_ignore = false
input_bohr = false
method = b3lyp
SCF_ALGORITHM = GDM
MAX_SCF_CYCLES=500
SCF_CONVERGENCE = 10
MEM_TOTAL = 100000 
ECP = fit-LANL2DZ
basis = general
NEO = TRUE
NEO_EPC = epc172
NEO_PURECART = 1111 
NEO_VPP = 0
NEO_N_SCF_CONVERGENCE = 10
NEO_E_CONV = 10
$end


$basis
   H 0
   def2-svp
   ****
   F 0
   def2-svp
   ****
   Au 0
   LANL2DZ
   ****
$end

$neo_basis
H    1
S    1    1.000000
   5.973 1.0
S    1    1.000000
   10.645 1.0
S    1    1.000000
   17.943 1.0
S    1    1.000000
   28.950 1.0
P    1    1.000000
   7.604 1.0
P    1    1.000000
   14.701 1.0
P    1    1.000000
   23.308 1.0
D    1    1.000000
   9.011 1.0
D    1    1.000000
   19.787 1.0
F    1    1.000000
   10.914 1.0
F    1    1.000000
   20.985 1.0
****
$end

$neo_tdks
dt 0.1
maxiter 12600
field_type delta
field_amp 1e-2
in_cavity false 0.58104211 0 6e-4 1e8
rt_thresh 2
enforce_eh true
apply_efield_method 0
$end
