$molecule
0 1
O         0.0000000000   -1.3008730953    2.0456624985
O         0.0000000000    1.2908329047    2.0456624985
C         0.0000000000   -1.2160310953    0.7592594985
C         0.0000000000    1.2059909047    0.7592594985
C         0.0000000000   -0.0050200953    0.0533444985
H         0.0000000000   -0.0050200953   -1.0248235015
H         0.0000000000   -2.1631460953    0.2189674985
H         0.0000000000    2.1531059047    0.2189674985
H         0.0000000000   -0.3010120550    2.3554201375
Gh         0.0000000000    0.000000000    2.3554165853
Gh 0.000000 0.255344 2.386901
$end

$rem
sym_ignore = 1
jobtype = force
input_bohr = false
method = b3lyp
neo = true
neo_epc = epc172
SCF_ALGORITHM = gdm
MEM_TOTAL = 30000
thresh = 12
s2thresh = 12
SCF_CONVERGENCE = 9
NEO_N_SCF_CONVERGENCE = 9
MAX_SCF_CYCLES = 500
BASIS = mixed
NEO_PURECART = 1111 
NEO_VPP = 0
NEO_BASIS_LIN_DEP_THRESH = 8
NEO_E_CONV = 9
$end

$basis
O 1
cc-pvdz
****
O 2
cc-pvdz
****
C 3
cc-pvdz
****
C 4
cc-pvdz
****
C 5
cc-pvdz
****
H 6
cc-pvdz
****
H 7
cc-pvdz
****
H 8
cc-pvdz
****
H 9
cc-pvdz
****
H 10
cc-pvdz
****
H 11
cc-pvdz
****
$end

$neo_basis
H    9
S    1    1.000000
   5.973 1.0
S    1    1.000000
   10.645 1.0
S    1    1.000000
   17.943 1.0
S    1    1.000000
   28.950 1.0
P    1    1.000000
   7.604 1.0
P    1    1.000000
   14.701 1.0
P    1    1.000000
   23.308 1.0
D    1    1.000000
   9.011 1.0
D    1    1.000000
   19.787 1.0
F    1    1.000000
   10.914 1.0
F    1    1.000000
   20.985 1.0
****
H    10
S    1    1.000000
   5.973 1.0
S    1    1.000000
   10.645 1.0
S    1    1.000000
   17.943 1.0
S    1    1.000000
   28.950 1.0
P    1    1.000000
   7.604 1.0
P    1    1.000000
   14.701 1.0
P    1    1.000000
   23.308 1.0
D    1    1.000000
   9.011 1.0
D    1    1.000000
   19.787 1.0
F    1    1.000000
   10.914 1.0
F    1    1.000000
   20.985 1.0
****
H    11
S    1    1.000000
   5.973 1.0
S    1    1.000000
   10.645 1.0
S    1    1.000000
   17.943 1.0
S    1    1.000000
   28.950 1.0
P    1    1.000000
   7.604 1.0
P    1    1.000000
   14.701 1.0
P    1    1.000000
   23.308 1.0
D    1    1.000000
   9.011 1.0
D    1    1.000000
   19.787 1.0
F    1    1.000000
   10.914 1.0
F    1    1.000000
   20.985 1.0
****
$end

$neo_tdks
protonic_HOMO2LUMO false
dt 0.4
maxiter 103353
field_type delta
field_amp 0e-3
in_cavity false 2.01 2 1e-2 100
rt_thresh 4
moving_proton_basis_center false
moving_classical_nuclei true
update_basis_every_m 1
update_nuclei_every_n 10
scf_e false
$end
