$molecule
0 1
C -1.293251 1.270970 0.000000
C 0.032066 0.824049 0.000000
C 0.294115 -0.568710 0.000000
C -0.781038 -1.473582 0.000000
C -2.086523 -1.025436 0.000000
C -2.330627 0.354621 0.000000
O 1.019570 1.730158 0.000000
C 1.660600 -1.058238 0.000000
O 2.655089 -0.337865 0.000000
H -3.352319 0.715847 0.000000
H -0.564373 -2.536711 0.000000
H -2.911046 -1.726097 0.000000
H -1.480360 2.337034 0.000000
H 1.782954 -2.156428 0.000000 
H 1.875980 1.242058 0.000000
$end

$rem
jobtype = FORCE
sym_ignore = 1
input_bohr = false
method = b3lyp
SCF_ALGORITHM = diis
MAX_SCF_CYCLES=200
basis = mixed
NEO_PURECART = 1111
SCF_CONVERGENCE = 8
mem_total = 7000
neo = true
NEO_E_CONV = 9
NEO_EPC = epc172
NEO_VPP = 0
NEO_BASIS_LIN_DEP_THRESH = 8
$end

$basis
C 1
cc-pvdz
****
C 2
cc-pvdz
****
C 3
cc-pvdz
****
C 4
cc-pvdz
****
C 5
cc-pvdz
****
C 6
cc-pvdz
****
O 7
cc-pvdz
****
C 8
cc-pvdz
****
O 9
cc-pvdz
****
H 10
cc-pvdz
****
H 11
cc-pvdz
****
H 12
cc-pvdz
****
H 13
cc-pvdz
****
H 14
cc-pvdz
****
H 15
cc-pvdz
****
$end

$neo_basis
H    15
S    1    1.000000
5.973 1.0
S    1    1.000000
10.645 1.0
S    1    1.000000
17.943 1.0
S    1    1.000000
28.950 1.0
P    1    1.000000
7.604 1.0
P    1    1.000000
14.701 1.0
P    1    1.000000
23.308 1.0
D    1    1.000000
9.011 1.0
D    1    1.000000
19.787 1.0
F    1    1.000000
10.914 1.0
F    1    1.000000
20.985 1.0
****
$end


$neo_tdks
electronic_HOMO2LUMO true
dt  0.04
maxiter 140000
field_type delta
field_amp 0.000
in_cavity false 2.01 2 1e-2 100
rt_thresh 0
de_thresh 5e-4
moving_classical_nuclei true
moving_proton_basis_center true
update_basis_every_m 1
update_nuclei_every_n 10
proton_basis_gradient_method 0
moving_proton_basis_center_method 13 
rescf_method 0
proton_rk4 false
$end
