$molecule
-1 1
Al      -0.0076262410     -0.0594344247     -0.0612487404                 
Al       0.1101047247      0.0390858125      2.6016674667                 
Al       2.2970077678      0.2548228141     -1.3686533275                 
Al       1.7400738130      1.6579651251      0.9918966950                 
Al      -0.3410875708     -2.3674204126      1.2364042776                 
Al       1.0144132679     -2.2350572960     -1.2197570802                 
Al      -2.3116819862     -0.3722848018      1.2465533498                 
Al      -0.1230961130     -0.1567459002     -2.7242976040                 
Al      -1.7499048525     -1.7826984255     -1.1136573362                 
Al      -1.0274624357      2.1166186879      1.0958454890                 
Al       0.3222485310      2.2498105967     -1.3562881495                 
Al       2.1616752527     -1.1179926394      1.0752485190                 
Al      -2.1796729702      0.9897352428     -1.1998904537                 
H        5.4111985569      0.5512033688      1.6266684087                 
H        6.1244102555      0.5924922522      1.8639084856    
$end

$rem
jobtype = FORCE
sym_ignore = 1
input_bohr = false
method = pbe
SCF_ALGORITHM = GDM
MAX_SCF_CYCLES=200
basis = mixed
NEO_PURECART = 1111
SCF_CONVERGENCE = 6
mem_total = 30000
neo = true
NEO_E_CONV = 6
NEO_EPC = epc172
NEO_VPP = 1
NEO_BASIS_LIN_DEP_THRESH = 8
BASIS_LIN_DEP_THRESH = 8
THRESH = 14
S2THRESH = 19
NEO_ISOTOPE = 2
$end


$basis
Al 1
6-31G(d)
****
Al 2
6-31G(d)
****
Al 3
6-31G(d)
****
Al 4
6-31G(d)
****
Al 5
6-31G(d)
****
Al 6
6-31G(d)
****
Al 7
6-31G(d)
****
Al 8
6-31G(d)
****
Al 9
6-31G(d)
****
Al 10
6-31G(d)
****
Al 11
6-31G(d)
****
Al 12
6-31G(d)
****
Al 13
6-31G(d)
****
H 14
6-31G(d)
****
H 15
6-31G(d)
****
$end


$neo_basis
H    14
S    1    1.000000
   99999.9 1.0
****
H    15
S    1    1.000000
   99999.9 1.0
****
$end


$neo_tdks
electronic_HOMO2LUMO false
dt  0.1
maxiter 82000
field_type gaussian 0.0 800.0 6.0
field_amp 2e-2
in_cavity false 2.01 2 1e-2 100
rt_thresh 2
moving_classical_nuclei false
moving_proton_basis_center true
enforce_eh true
update_basis_every_m 10
update_nuclei_every_n 1
proton_basis_gradient_method 0
moving_proton_basis_center_method 0 
rescf_method 0
proton_rk4 false
do_analytical_gradient false
$end
