$molecule
0 1
O         0.0000000000   -1.3008730953    2.0456624985
O         0.0000000000    1.2908329047    2.0456624985
C         0.0000000000   -1.2160310953    0.7592594985
C         0.0000000000    1.2059909047    0.7592594985
C         0.0000000000   -0.0050200953    0.0533444985
H         0.0000000000   -0.0050200953   -1.0248235015
H         0.0000000000   -2.1631460953    0.2189674985
H         0.0000000000    2.1531059047    0.2189674985
H         0.0000000000   -0.3010120550    2.3554201375
$end

$rem
sym_ignore = 1
jobtype = force
input_bohr = false
method = b3lyp
neo = true
neo_epc = epc172
SCF_ALGORITHM = gdm
MEM_TOTAL = 30000
thresh = 12
s2thresh = 12
SCF_CONVERGENCE = 9
NEO_N_SCF_CONVERGENCE = 9
MAX_SCF_CYCLES = 500
BASIS = mixed
NEO_PURECART = 1111 
NEO_VPP = 0
NEO_BASIS_LIN_DEP_THRESH = 8
NEO_E_CONV = 9
$end

$basis
O 1
cc-pvdz
****
O 2
cc-pvdz
****
C 3
cc-pvdz
****
C 4
cc-pvdz
****
C 5
cc-pvdz
****
H 6
cc-pvdz
****
H 7
cc-pvdz
****
H 8
cc-pvdz
****
H 9
cc-pvdz
****
$end

$neo_basis
H    9
S    1    1.000000
   9999.9 1.0
****
$end

$neo_tdks
protonic_HOMO2LUMO false
dt 0.08
maxiter 103353
field_type delta
field_amp 0e-3
in_cavity false 2.01 2 1e-2 100
rt_thresh 4
moving_proton_basis_center true
moving_classical_nuclei true
update_basis_every_m 5
update_nuclei_every_n 10
$end
