$molecule
-1 1
Al       -0.0082323678   -0.0595686468   -0.0614495369
Al        0.1092879380    0.0393504486    2.6029359302
Al        2.2972546932    0.2546324080   -1.3694878096
Al        1.7399697127    1.6585631514    0.9925401411
Al       -0.3416310039   -2.3686680321    1.2364253016
Al        1.0138739167   -2.2361792595   -1.2208088799
Al       -2.3131236572   -0.3723954435    1.2472589556
Al       -0.1235750634   -0.1573566169   -2.7259429194
Al       -1.7517022265   -1.7829693317   -1.1148625550
Al       -1.0283719936    2.1173930496    1.0965407355
Al        0.3219731414    2.2505913261   -1.3568522824
Al        2.1617936725   -1.1178236422    1.0760021340
Al       -2.1809048673    0.9897668836   -1.2007724756
H         5.4110843180    0.5506894586    1.6270893460
H         6.1329037876    0.5940742460    1.8657839145
$end

$rem
jobtype = FORCE
sym_ignore = 1
input_bohr = false
method = pbe
SCF_ALGORITHM = GDM
MAX_SCF_CYCLES=200
basis = mixed
NEO_PURECART = 1111
SCF_CONVERGENCE = 6
mem_total = 30000
neo = true
NEO_E_CONV = 6
NEO_EPC = epc172
NEO_VPP = 1
NEO_BASIS_LIN_DEP_THRESH = 8
BASIS_LIN_DEP_THRESH = 8
THRESH = 14
S2THRESH = 19
MAKE_CUBE_FILES = true
plots = true
$end


$basis
Al 1
6-31+G(d,p)
****
Al 2
6-31+G(d,p)
****
Al 3
6-31+G(d,p)
****
Al 4
6-31+G(d,p)
****
Al 5
6-31+G(d,p)
****
Al 6
6-31+G(d,p)
****
Al 7
6-31+G(d,p)
****
Al 8
6-31+G(d,p)
****
Al 9
6-31+G(d,p)
****
Al 10
6-31+G(d,p)
****
Al 11
6-31+G(d,p)
****
Al 12
6-31+G(d,p)
****
Al 13
6-31+G(d,p)
****
H 14
6-31+G(d,p)
****
H 15
6-31+G(d,p)
****
$end

$neo_basis
H    14
S    1    1.000000
   1.957 1.0
S    1    1.000000
   8.734 1.0
S    1    1.000000
   16.010 1.0
S    1    1.000000
   31.997 1.0
P    1    1.000000
   9.438 1.0
P    1    1.000000
   13.795 1.0
P    1    1.000000
   24.028 1.0
D    1    1.000000
   10.524 1.0
D    1    1.000000
   19.016 1.0
****
H    15
S    1    1.000000
   1.957 1.0
S    1    1.000000
   8.734 1.0
S    1    1.000000
   16.010 1.0
S    1    1.000000
   31.997 1.0
P    1    1.000000
   9.438 1.0
P    1    1.000000
   13.795 1.0
P    1    1.000000
   24.028 1.0
D    1    1.000000
   10.524 1.0
D    1    1.000000
   19.016 1.0
****
$end


$neo_tdks
electronic_HOMO2LUMO false
dt  0.1
maxiter 9000
field_type gaussian 0.0 800.0 6.0
field_amp 9e-3
in_cavity false 2.01 2 1e-2 100
rt_thresh 2
moving_classical_nuclei false
moving_proton_basis_center true
enforce_eh true
update_basis_every_m 10
update_nuclei_every_n 1
proton_basis_gradient_method 0
moving_proton_basis_center_method 0 
rescf_method 0
proton_rk4 false
save_per_iter 400
plt_params 80 -10.0 20.0
do_analytical_gradient false
$end
