$molecule
-1 1
Al       -0.0076293825   -0.0594337822   -0.0612491903
Al        0.1101015832    0.0390864550    2.6016670168
Al        2.2970046263    0.2548234566   -1.3686537774
Al        1.7400706715    1.6579657676    0.9918962451
Al       -0.3410907123   -2.3674197701    1.2364038277
Al        1.0144101264   -2.2350566535   -1.2197575301
Al       -2.3116851277   -0.3722841593    1.2465528999
Al       -0.1230992545   -0.1567452577   -2.7242980539
Al       -1.7499079940   -1.7826977830   -1.1136577861
Al       -1.0274655772    2.1166193304    1.0958450391
Al        0.3222453895    2.2498112392   -1.3562885994
Al        2.1616721112   -1.1179919969    1.0752480691
Al       -2.1796761117    0.9897358853   -1.1998909036
H         5.4230619112    0.5517192018    1.6306411193
H         6.1125877407    0.5919680666    1.8599416235
$end

$rem
jobtype = FORCE
sym_ignore = 1
input_bohr = false
method = pbe
SCF_ALGORITHM = GDM
MAX_SCF_CYCLES=200
basis = mixed
NEO_PURECART = 1111
SCF_CONVERGENCE = 8
mem_total = 30000
neo = true
NEO_E_CONV = 8
NEO_EPC = epc172
NEO_VPP = 1
NEO_BASIS_LIN_DEP_THRESH = 8
BASIS_LIN_DEP_THRESH = 8
THRESH = 14
S2THRESH = 19
MAKE_CUBE_FILES = true
plots = true
NEO_ISOTOPE = 2
$end


$basis
Al 1
6-31G(d,p)
****
Al 2
6-31G(d,p)
****
Al 3
6-31G(d,p)
****
Al 4
6-31G(d,p)
****
Al 5
6-31G(d,p)
****
Al 6
6-31G(d,p)
****
Al 7
6-31G(d,p)
****
Al 8
6-31G(d,p)
****
Al 9
6-31G(d,p)
****
Al 10
6-31G(d,p)
****
Al 11
6-31G(d,p)
****
Al 12
6-31G(d,p)
****
Al 13
6-31G(d,p)
****
H 14
6-31G(d,p)
****
H 15
6-31G(d,p)
****
$end

$neo_basis
H    14
S    1    1.000000
   2.768 1.0
S    1    1.000000
   12.352 1.0
S    1    1.000000
   22.642 1.0
S    1    1.000000
   45.251 1.0
P    1    1.000000
   13.347 1.0
P    1    1.000000
   19.509 1.0
P    1    1.000000
   33.981 1.0
D    1    1.000000
   14.883 1.0
D    1    1.000000
   26.893 1.0
****
H    15
S    1    1.000000
   2.768 1.0
S    1    1.000000
   12.352 1.0
S    1    1.000000
   22.642 1.0
S    1    1.000000
   45.251 1.0
P    1    1.000000
   13.347 1.0
P    1    1.000000
   19.509 1.0
P    1    1.000000
   33.981 1.0
D    1    1.000000
   14.883 1.0
D    1    1.000000
   26.893 1.0
****
$end

$neo_tdks
electronic_HOMO2LUMO false
dt  0.1
maxiter 9000
field_type gaussian 0.0 800.0 6.0
field_amp 5e-2
in_cavity false 2.01 2 1e-2 100
rt_thresh 2
moving_classical_nuclei false
moving_proton_basis_center true
enforce_eh true
update_basis_every_m 10
update_nuclei_every_n 1
proton_basis_gradient_method 0
moving_proton_basis_center_method 0 
rescf_method 0
proton_rk4 false
save_per_iter 400
plt_params 80 -10.0 20.0
do_analytical_gradient false
$end
